language ESSENCE' 1.0
$ minion Nodes: 81937
$ minion TotalTime: 1.56013
$ Savile Row TotalTime: 2.292
letting schur_MSetOfSets_MSetExplicit_SetExplicitVarSize_tuple1 be [[false, false, false, false;int(1..4)], 
[false, false, false, true;int(1..4)], 
[false, true, true, true;int(1..4)];int(1..3)]
letting schur_MSetOfSets_MSetExplicit_SetExplicitVarSize_tuple2 be [[1, 1, 1, 1;int(1..4)], 
[1, 1, 1, 1;int(1..4)], 
[1, 2, 3, 4;int(1..4)];int(1..3)]
